c " random instance " 
p edges 200 2213
e 1 4
e 1 7
e 1 14
e 1 16
e 1 39
e 1 41
e 1 46
e 1 56
e 1 61
e 1 76
e 1 110
e 1 122
e 1 124
e 1 130
e 1 143
e 1 151
e 1 168
e 1 184
e 1 199
e 2 5
e 2 24
e 2 28
e 2 36
e 2 46
e 2 64
e 2 69
e 2 78
e 2 79
e 2 90
e 2 97
e 2 100
e 2 101
e 2 108
e 2 114
e 2 116
e 2 127
e 2 128
e 2 143
e 2 147
e 2 156
e 2 162
e 2 172
e 2 173
e 2 182
e 2 190
e 2 196
e 2 198
e 2 200
e 3 8
e 3 15
e 3 26
e 3 31
e 3 40
e 3 42
e 3 58
e 3 59
e 3 80
e 3 89
e 3 97
e 3 109
e 3 141
e 3 175
e 3 178
e 3 189
e 3 195
e 3 200
e 4 12
e 4 18
e 4 61
e 4 64
e 4 66
e 4 75
e 4 103
e 4 162
e 4 178
e 4 184
e 5 9
e 5 12
e 5 46
e 5 49
e 5 50
e 5 58
e 5 59
e 5 63
e 5 81
e 5 88
e 5 89
e 5 96
e 5 106
e 5 116
e 5 117
e 5 122
e 5 144
e 5 150
e 5 161
e 5 192
e 5 197
e 6 21
e 6 30
e 6 37
e 6 51
e 6 53
e 6 66
e 6 73
e 6 86
e 6 107
e 6 108
e 6 109
e 6 124
e 6 126
e 6 152
e 6 161
e 6 167
e 6 175
e 6 177
e 7 14
e 7 17
e 7 33
e 7 41
e 7 44
e 7 59
e 7 72
e 7 73
e 7 81
e 7 90
e 7 98
e 7 101
e 7 106
e 7 117
e 7 118
e 7 129
e 7 131
e 7 132
e 7 137
e 7 140
e 7 142
e 7 143
e 7 146
e 7 151
e 7 152
e 7 160
e 7 163
e 7 175
e 7 180
e 7 184
e 7 190
e 7 199
e 7 200
e 8 9
e 8 12
e 8 34
e 8 64
e 8 73
e 8 74
e 8 82
e 8 97
e 8 124
e 8 126
e 8 143
e 8 145
e 8 151
e 8 154
e 8 159
e 8 165
e 8 188
e 8 192
e 9 12
e 9 18
e 9 23
e 9 25
e 9 32
e 9 46
e 9 48
e 9 58
e 9 66
e 9 84
e 9 107
e 9 130
e 9 133
e 9 152
e 9 163
e 9 168
e 9 174
e 9 192
e 9 193
e 9 197
e 9 198
e 10 28
e 10 37
e 10 41
e 10 49
e 10 50
e 10 51
e 10 60
e 10 63
e 10 74
e 10 93
e 10 103
e 10 117
e 10 130
e 10 139
e 10 159
e 10 163
e 10 175
e 10 178
e 11 16
e 11 31
e 11 35
e 11 51
e 11 52
e 11 67
e 11 74
e 11 104
e 11 112
e 11 119
e 11 123
e 11 132
e 11 136
e 11 138
e 11 145
e 11 164
e 11 177
e 11 186
e 11 188
e 11 190
e 12 19
e 12 37
e 12 55
e 12 67
e 12 84
e 12 112
e 12 113
e 12 120
e 12 124
e 12 125
e 12 126
e 12 129
e 12 135
e 12 147
e 12 152
e 12 169
e 12 186
e 12 188
e 13 18
e 13 21
e 13 26
e 13 31
e 13 36
e 13 54
e 13 64
e 13 73
e 13 76
e 13 98
e 13 103
e 13 108
e 13 117
e 13 124
e 13 127
e 13 133
e 13 137
e 13 149
e 13 157
e 13 160
e 13 165
e 13 178
e 13 180
e 14 19
e 14 25
e 14 27
e 14 50
e 14 55
e 14 58
e 14 63
e 14 70
e 14 73
e 14 77
e 14 81
e 14 88
e 14 98
e 14 100
e 14 111
e 14 119
e 14 125
e 14 127
e 14 135
e 14 138
e 14 143
e 14 152
e 14 158
e 14 161
e 14 169
e 14 170
e 14 176
e 14 181
e 14 183
e 15 18
e 15 25
e 15 31
e 15 35
e 15 43
e 15 56
e 15 62
e 15 66
e 15 90
e 15 108
e 15 114
e 15 121
e 15 150
e 15 157
e 15 161
e 15 175
e 15 183
e 15 187
e 15 192
e 16 18
e 16 24
e 16 29
e 16 30
e 16 35
e 16 46
e 16 55
e 16 56
e 16 64
e 16 66
e 16 98
e 16 105
e 16 112
e 16 118
e 16 127
e 16 133
e 16 135
e 16 141
e 16 142
e 16 146
e 16 155
e 16 158
e 16 166
e 16 181
e 16 187
e 16 196
e 17 29
e 17 33
e 17 35
e 17 47
e 17 57
e 17 58
e 17 63
e 17 68
e 17 70
e 17 71
e 17 89
e 17 94
e 17 102
e 17 105
e 17 107
e 17 116
e 17 156
e 17 162
e 17 163
e 17 167
e 17 170
e 17 183
e 18 33
e 18 35
e 18 41
e 18 42
e 18 50
e 18 54
e 18 62
e 18 63
e 18 71
e 18 81
e 18 102
e 18 108
e 18 110
e 18 111
e 18 117
e 18 121
e 18 150
e 18 157
e 18 161
e 18 162
e 18 169
e 18 177
e 18 182
e 18 183
e 18 188
e 18 193
e 18 194
e 18 200
e 19 22
e 19 24
e 19 31
e 19 53
e 19 80
e 19 81
e 19 82
e 19 91
e 19 92
e 19 102
e 19 106
e 19 135
e 19 166
e 19 180
e 19 185
e 19 199
e 20 30
e 20 31
e 20 47
e 20 49
e 20 56
e 20 72
e 20 74
e 20 88
e 20 96
e 20 97
e 20 102
e 20 107
e 20 120
e 20 122
e 20 129
e 20 136
e 20 148
e 20 151
e 20 159
e 20 167
e 20 171
e 20 173
e 20 180
e 20 181
e 21 27
e 21 56
e 21 65
e 21 67
e 21 71
e 21 73
e 21 78
e 21 84
e 21 96
e 21 111
e 21 121
e 21 163
e 21 177
e 21 187
e 21 195
e 22 23
e 22 29
e 22 33
e 22 40
e 22 41
e 22 52
e 22 54
e 22 58
e 22 71
e 22 86
e 22 91
e 22 95
e 22 96
e 22 119
e 22 139
e 22 144
e 22 153
e 22 156
e 22 162
e 22 165
e 22 171
e 22 172
e 22 174
e 22 176
e 22 182
e 22 198
e 23 25
e 23 50
e 23 52
e 23 59
e 23 68
e 23 92
e 23 94
e 23 123
e 23 125
e 23 129
e 23 131
e 23 138
e 23 139
e 23 154
e 23 168
e 23 170
e 23 180
e 23 189
e 24 29
e 24 40
e 24 53
e 24 68
e 24 110
e 24 132
e 24 141
e 24 142
e 24 147
e 24 167
e 25 27
e 25 34
e 25 85
e 25 113
e 25 122
e 25 124
e 25 125
e 25 138
e 25 156
e 25 162
e 25 163
e 25 166
e 25 170
e 25 173
e 25 180
e 25 198
e 25 199
e 26 33
e 26 58
e 26 61
e 26 66
e 26 71
e 26 73
e 26 74
e 26 89
e 26 94
e 26 100
e 26 103
e 26 130
e 26 133
e 26 163
e 26 174
e 26 181
e 26 182
e 26 191
e 26 192
e 26 194
e 27 45
e 27 50
e 27 80
e 27 84
e 27 85
e 27 93
e 27 109
e 27 129
e 27 130
e 27 137
e 27 154
e 27 159
e 27 178
e 27 186
e 27 196
e 28 31
e 28 46
e 28 75
e 28 92
e 28 131
e 28 132
e 28 171
e 29 34
e 29 39
e 29 40
e 29 52
e 29 53
e 29 59
e 29 60
e 29 64
e 29 96
e 29 100
e 29 120
e 29 123
e 29 125
e 29 126
e 29 153
e 29 162
e 29 164
e 29 169
e 30 46
e 30 59
e 30 62
e 30 68
e 30 72
e 30 79
e 30 81
e 30 96
e 30 104
e 30 123
e 30 127
e 30 135
e 30 136
e 30 153
e 30 154
e 30 167
e 30 168
e 30 183
e 30 194
e 31 35
e 31 47
e 31 52
e 31 60
e 31 84
e 31 93
e 31 101
e 31 110
e 31 114
e 31 115
e 31 116
e 31 117
e 31 133
e 31 136
e 31 140
e 31 143
e 31 145
e 31 146
e 31 171
e 31 176
e 31 181
e 31 191
e 31 200
e 32 37
e 32 49
e 32 61
e 32 63
e 32 99
e 32 102
e 32 103
e 32 104
e 32 111
e 32 117
e 32 118
e 32 123
e 32 130
e 32 132
e 32 151
e 32 158
e 32 172
e 33 45
e 33 73
e 33 77
e 33 79
e 33 88
e 33 94
e 33 96
e 33 99
e 33 102
e 33 113
e 33 147
e 33 153
e 33 158
e 33 169
e 33 198
e 33 199
e 34 38
e 34 39
e 34 43
e 34 44
e 34 52
e 34 62
e 34 81
e 34 94
e 34 99
e 34 103
e 34 106
e 34 134
e 34 145
e 34 148
e 34 157
e 34 161
e 34 189
e 34 192
e 35 37
e 35 38
e 35 41
e 35 46
e 35 56
e 35 63
e 35 65
e 35 71
e 35 72
e 35 86
e 35 95
e 35 98
e 35 99
e 35 100
e 35 120
e 35 128
e 35 130
e 35 133
e 35 138
e 35 140
e 35 141
e 35 142
e 35 144
e 35 148
e 35 167
e 35 176
e 35 199
e 36 51
e 36 59
e 36 61
e 36 64
e 36 68
e 36 76
e 36 81
e 36 98
e 36 105
e 36 107
e 36 118
e 36 129
e 36 139
e 36 159
e 36 162
e 36 163
e 36 174
e 36 182
e 37 41
e 37 42
e 37 60
e 37 64
e 37 65
e 37 68
e 37 105
e 37 124
e 37 125
e 37 128
e 37 135
e 37 137
e 37 146
e 37 150
e 37 165
e 37 171
e 37 174
e 37 179
e 37 181
e 37 193
e 37 197
e 37 200
e 38 40
e 38 47
e 38 71
e 38 75
e 38 79
e 38 81
e 38 85
e 38 88
e 38 89
e 38 96
e 38 102
e 38 118
e 38 122
e 38 162
e 38 174
e 38 189
e 38 198
e 39 41
e 39 53
e 39 57
e 39 64
e 39 66
e 39 79
e 39 81
e 39 82
e 39 85
e 39 101
e 39 106
e 39 113
e 39 145
e 39 155
e 39 174
e 39 178
e 39 180
e 39 183
e 39 188
e 39 192
e 40 57
e 40 58
e 40 63
e 40 66
e 40 78
e 40 89
e 40 96
e 40 103
e 40 109
e 40 112
e 40 128
e 40 129
e 40 139
e 40 142
e 40 159
e 40 183
e 41 42
e 41 48
e 41 54
e 41 75
e 41 81
e 41 87
e 41 91
e 41 102
e 41 121
e 41 131
e 41 140
e 41 152
e 41 158
e 41 161
e 41 169
e 41 180
e 42 44
e 42 45
e 42 50
e 42 66
e 42 78
e 42 92
e 42 94
e 42 101
e 42 107
e 42 110
e 42 122
e 42 129
e 42 151
e 42 158
e 42 159
e 42 168
e 42 170
e 42 173
e 42 176
e 42 187
e 42 190
e 43 56
e 43 63
e 43 66
e 43 75
e 43 83
e 43 87
e 43 107
e 43 111
e 43 126
e 43 127
e 43 139
e 43 141
e 43 149
e 43 156
e 43 158
e 43 161
e 43 164
e 43 172
e 43 175
e 43 178
e 43 179
e 43 190
e 43 194
e 44 54
e 44 60
e 44 78
e 44 87
e 44 123
e 44 133
e 44 146
e 44 162
e 44 173
e 44 180
e 44 188
e 44 196
e 45 59
e 45 66
e 45 70
e 45 116
e 45 122
e 45 126
e 45 131
e 45 140
e 45 141
e 45 149
e 45 157
e 45 162
e 45 164
e 45 173
e 45 189
e 45 191
e 46 73
e 46 76
e 46 80
e 46 81
e 46 91
e 46 104
e 46 106
e 46 131
e 46 141
e 46 143
e 46 157
e 46 186
e 46 196
e 47 62
e 47 67
e 47 72
e 47 75
e 47 79
e 47 84
e 47 95
e 47 96
e 47 98
e 47 100
e 47 110
e 47 118
e 47 120
e 47 121
e 47 125
e 47 141
e 47 143
e 47 155
e 47 160
e 47 188
e 48 50
e 48 56
e 48 68
e 48 70
e 48 73
e 48 98
e 48 124
e 48 126
e 48 136
e 48 161
e 48 164
e 48 172
e 48 173
e 48 174
e 48 183
e 48 186
e 48 190
e 48 194
e 48 197
e 48 199
e 49 54
e 49 61
e 49 78
e 49 87
e 49 91
e 49 94
e 49 109
e 49 112
e 49 129
e 49 141
e 49 146
e 49 153
e 49 165
e 49 170
e 49 186
e 49 195
e 50 77
e 50 83
e 50 92
e 50 97
e 50 114
e 50 121
e 50 134
e 50 135
e 50 137
e 50 165
e 50 172
e 50 173
e 50 174
e 50 183
e 50 195
e 50 199
e 51 57
e 51 68
e 51 74
e 51 75
e 51 86
e 51 121
e 51 134
e 51 138
e 51 141
e 51 146
e 51 149
e 51 173
e 51 182
e 51 189
e 51 197
e 51 199
e 52 57
e 52 59
e 52 61
e 52 88
e 52 97
e 52 108
e 52 118
e 52 119
e 52 122
e 52 145
e 52 152
e 52 155
e 52 160
e 52 182
e 52 191
e 53 55
e 53 63
e 53 68
e 53 83
e 53 85
e 53 86
e 53 87
e 53 90
e 53 95
e 53 100
e 53 107
e 53 124
e 53 131
e 53 144
e 53 145
e 53 165
e 53 193
e 53 196
e 54 58
e 54 61
e 54 69
e 54 80
e 54 84
e 54 93
e 54 98
e 54 99
e 54 115
e 54 134
e 54 140
e 54 141
e 54 145
e 54 159
e 54 163
e 54 171
e 54 172
e 54 174
e 54 180
e 54 189
e 55 66
e 55 96
e 55 97
e 55 124
e 55 129
e 55 131
e 55 138
e 55 139
e 55 146
e 55 149
e 55 159
e 55 160
e 55 179
e 55 185
e 55 186
e 55 187
e 55 188
e 55 195
e 55 199
e 55 200
e 56 59
e 56 64
e 56 95
e 56 103
e 56 109
e 56 122
e 56 124
e 56 141
e 56 154
e 56 180
e 56 190
e 56 193
e 57 58
e 57 64
e 57 65
e 57 88
e 57 90
e 57 94
e 57 102
e 57 109
e 57 111
e 57 128
e 57 129
e 57 144
e 57 148
e 57 152
e 57 172
e 57 174
e 57 176
e 57 177
e 57 185
e 57 186
e 57 190
e 58 59
e 58 60
e 58 64
e 58 66
e 58 69
e 58 82
e 58 84
e 58 96
e 58 123
e 58 126
e 58 137
e 58 143
e 58 149
e 58 156
e 58 160
e 58 168
e 58 177
e 58 178
e 58 199
e 59 60
e 59 66
e 59 90
e 59 94
e 59 97
e 59 131
e 59 136
e 59 144
e 59 168
e 59 172
e 59 184
e 59 185
e 59 186
e 59 194
e 59 195
e 60 70
e 60 76
e 60 80
e 60 83
e 60 102
e 60 106
e 60 122
e 60 131
e 60 136
e 60 144
e 60 148
e 60 150
e 60 157
e 60 183
e 60 197
e 61 77
e 61 86
e 61 109
e 61 114
e 61 119
e 61 137
e 61 142
e 61 163
e 61 165
e 61 172
e 61 186
e 61 197
e 62 67
e 62 74
e 62 78
e 62 102
e 62 103
e 62 137
e 62 146
e 62 173
e 62 178
e 62 180
e 62 191
e 62 197
e 63 71
e 63 73
e 63 83
e 63 85
e 63 89
e 63 97
e 63 105
e 63 106
e 63 107
e 63 121
e 63 124
e 63 136
e 63 143
e 63 154
e 63 167
e 63 179
e 63 184
e 63 188
e 63 200
e 64 65
e 64 79
e 64 94
e 64 101
e 64 115
e 64 126
e 64 131
e 64 148
e 64 167
e 64 178
e 64 188
e 64 200
e 65 72
e 65 87
e 65 91
e 65 93
e 65 107
e 65 127
e 65 129
e 65 135
e 65 138
e 65 143
e 65 146
e 65 167
e 65 192
e 65 200
e 66 78
e 66 79
e 66 80
e 66 85
e 66 97
e 66 104
e 66 105
e 66 116
e 66 134
e 66 147
e 66 148
e 66 178
e 66 192
e 66 195
e 66 199
e 66 200
e 67 77
e 67 86
e 67 99
e 67 104
e 67 108
e 67 115
e 67 124
e 67 128
e 67 141
e 67 142
e 67 143
e 67 155
e 67 176
e 67 191
e 67 194
e 67 195
e 68 72
e 68 80
e 68 89
e 68 107
e 68 109
e 68 138
e 68 144
e 68 161
e 68 171
e 68 176
e 68 185
e 68 187
e 68 189
e 68 195
e 68 196
e 68 199
e 69 78
e 69 125
e 69 158
e 69 183
e 69 184
e 69 186
e 69 198
e 70 72
e 70 92
e 70 114
e 70 115
e 70 120
e 70 130
e 70 137
e 70 140
e 70 147
e 70 151
e 70 155
e 70 161
e 70 162
e 70 165
e 70 166
e 70 169
e 70 178
e 70 187
e 71 74
e 71 77
e 71 101
e 71 105
e 71 117
e 71 135
e 71 136
e 71 141
e 71 146
e 71 188
e 72 94
e 72 105
e 72 123
e 72 130
e 72 138
e 72 150
e 72 151
e 72 166
e 72 173
e 72 180
e 72 190
e 73 89
e 73 93
e 73 100
e 73 103
e 73 109
e 73 121
e 73 124
e 73 145
e 73 148
e 73 164
e 73 167
e 73 179
e 73 180
e 74 77
e 74 80
e 74 93
e 74 95
e 74 98
e 74 102
e 74 144
e 74 152
e 74 166
e 74 167
e 75 91
e 75 93
e 75 95
e 75 108
e 75 109
e 75 110
e 75 114
e 75 125
e 75 138
e 75 177
e 75 189
e 75 200
e 76 80
e 76 85
e 76 89
e 76 91
e 76 94
e 76 105
e 76 114
e 76 127
e 76 129
e 76 130
e 76 142
e 76 154
e 76 162
e 76 184
e 77 93
e 77 100
e 77 103
e 77 126
e 77 141
e 77 170
e 77 198
e 78 94
e 78 106
e 78 109
e 78 113
e 78 127
e 78 129
e 78 145
e 78 148
e 78 153
e 78 158
e 78 160
e 78 163
e 78 185
e 78 190
e 78 191
e 78 199
e 79 94
e 79 96
e 79 99
e 79 100
e 79 101
e 79 105
e 79 111
e 79 114
e 79 121
e 79 135
e 79 160
e 79 163
e 79 179
e 79 181
e 79 183
e 79 188
e 80 81
e 80 87
e 80 89
e 80 101
e 80 106
e 80 120
e 80 123
e 80 124
e 80 131
e 80 132
e 80 135
e 80 136
e 80 143
e 80 147
e 80 159
e 80 182
e 80 184
e 80 185
e 80 188
e 80 189
e 81 84
e 81 99
e 81 104
e 81 122
e 81 126
e 81 136
e 81 138
e 81 139
e 81 165
e 81 175
e 81 190
e 81 192
e 81 197
e 82 83
e 82 88
e 82 103
e 82 111
e 82 119
e 82 124
e 82 146
e 82 165
e 82 168
e 82 173
e 82 177
e 83 87
e 83 95
e 83 100
e 83 107
e 83 110
e 83 121
e 83 139
e 83 150
e 83 161
e 83 162
e 83 164
e 83 166
e 83 189
e 83 196
e 83 198
e 84 86
e 84 100
e 84 108
e 84 112
e 84 117
e 84 148
e 84 151
e 84 173
e 84 182
e 84 185
e 84 189
e 84 192
e 85 90
e 85 92
e 85 103
e 85 107
e 85 116
e 85 132
e 85 144
e 85 153
e 85 168
e 85 195
e 85 197
e 86 102
e 86 108
e 86 111
e 86 114
e 86 128
e 86 138
e 86 146
e 86 157
e 86 180
e 86 183
e 86 184
e 86 192
e 87 126
e 87 130
e 87 131
e 87 145
e 87 197
e 87 199
e 88 93
e 88 105
e 88 115
e 88 116
e 88 133
e 88 141
e 88 142
e 88 155
e 88 163
e 88 166
e 88 167
e 88 168
e 88 169
e 88 172
e 88 173
e 88 180
e 88 184
e 88 186
e 88 191
e 89 102
e 89 104
e 89 108
e 89 112
e 89 123
e 89 125
e 89 129
e 89 130
e 89 137
e 89 142
e 89 159
e 89 162
e 89 179
e 89 184
e 89 191
e 89 192
e 89 193
e 89 195
e 90 99
e 90 106
e 90 107
e 90 111
e 90 113
e 90 122
e 90 144
e 90 147
e 90 155
e 90 165
e 90 173
e 90 178
e 90 181
e 90 200
e 91 98
e 91 110
e 91 112
e 91 120
e 91 141
e 91 151
e 91 154
e 91 157
e 91 159
e 91 165
e 91 172
e 91 181
e 91 188
e 91 191
e 92 128
e 92 129
e 92 139
e 92 143
e 92 148
e 92 156
e 92 157
e 92 170
e 92 199
e 93 103
e 93 110
e 93 111
e 93 122
e 93 127
e 93 131
e 93 148
e 93 158
e 93 176
e 93 178
e 93 183
e 93 184
e 93 189
e 93 191
e 94 98
e 94 104
e 94 115
e 94 118
e 94 141
e 94 143
e 94 160
e 94 165
e 94 178
e 94 181
e 94 193
e 94 199
e 95 97
e 95 104
e 95 129
e 95 133
e 95 144
e 95 164
e 95 166
e 95 169
e 95 179
e 95 182
e 95 188
e 95 189
e 95 199
e 96 118
e 96 125
e 96 140
e 96 147
e 96 148
e 96 154
e 96 156
e 96 159
e 96 168
e 96 174
e 96 175
e 96 176
e 96 182
e 96 188
e 96 194
e 96 198
e 97 104
e 97 107
e 97 123
e 97 125
e 97 144
e 97 155
e 97 192
e 97 193
e 98 102
e 98 103
e 98 108
e 98 126
e 98 129
e 98 131
e 98 134
e 98 142
e 98 160
e 98 167
e 98 168
e 98 182
e 99 110
e 99 142
e 99 148
e 99 149
e 99 177
e 99 179
e 99 194
e 99 200
e 100 116
e 100 131
e 100 136
e 100 140
e 100 142
e 100 146
e 100 172
e 100 180
e 100 200
e 101 110
e 101 120
e 101 123
e 101 129
e 101 130
e 101 142
e 101 155
e 101 192
e 102 107
e 102 115
e 102 119
e 102 123
e 102 130
e 102 135
e 102 145
e 102 161
e 102 163
e 102 167
e 102 170
e 102 180
e 102 187
e 102 194
e 102 195
e 103 106
e 103 111
e 103 114
e 103 152
e 103 165
e 103 166
e 103 176
e 103 183
e 103 186
e 103 188
e 103 193
e 104 105
e 104 106
e 104 109
e 104 118
e 104 120
e 104 124
e 104 132
e 104 143
e 104 153
e 104 154
e 104 156
e 104 158
e 104 160
e 104 187
e 104 188
e 105 112
e 105 123
e 105 133
e 105 139
e 105 156
e 105 167
e 105 195
e 106 110
e 106 116
e 106 119
e 106 123
e 106 131
e 106 146
e 106 150
e 106 162
e 106 166
e 106 169
e 106 179
e 106 193
e 106 199
e 107 116
e 107 129
e 107 132
e 107 134
e 107 135
e 107 139
e 107 155
e 107 159
e 107 171
e 107 173
e 107 179
e 107 187
e 107 194
e 107 200
e 108 129
e 108 130
e 108 134
e 108 146
e 108 194
e 109 110
e 109 114
e 109 117
e 109 130
e 109 149
e 109 150
e 109 163
e 109 164
e 109 168
e 109 184
e 109 195
e 110 113
e 110 115
e 110 126
e 110 161
e 110 171
e 110 188
e 110 193
e 111 113
e 111 121
e 111 141
e 111 146
e 111 152
e 111 156
e 111 171
e 111 182
e 111 185
e 111 194
e 111 197
e 112 124
e 112 132
e 112 134
e 112 151
e 112 153
e 112 170
e 112 174
e 112 175
e 112 190
e 112 197
e 113 119
e 113 122
e 113 126
e 113 130
e 113 148
e 113 152
e 113 154
e 113 158
e 113 177
e 113 179
e 113 190
e 114 116
e 114 119
e 114 120
e 114 136
e 114 138
e 114 143
e 114 163
e 114 166
e 114 169
e 114 182
e 114 185
e 114 194
e 115 127
e 115 131
e 115 161
e 115 167
e 115 174
e 115 178
e 115 182
e 115 196
e 115 198
e 116 138
e 116 147
e 116 150
e 116 152
e 116 156
e 116 163
e 116 169
e 116 175
e 116 179
e 116 183
e 116 195
e 116 199
e 117 122
e 117 137
e 117 166
e 117 171
e 117 173
e 117 177
e 117 194
e 118 127
e 118 147
e 118 158
e 118 161
e 118 164
e 118 166
e 118 173
e 118 194
e 118 200
e 119 137
e 119 146
e 119 149
e 119 156
e 119 157
e 119 186
e 120 121
e 120 131
e 120 133
e 120 152
e 120 155
e 120 156
e 120 159
e 120 160
e 120 162
e 120 166
e 121 146
e 121 147
e 121 154
e 121 160
e 121 167
e 121 184
e 122 132
e 122 137
e 122 142
e 122 152
e 122 158
e 122 159
e 122 161
e 122 170
e 122 192
e 123 126
e 123 129
e 123 130
e 123 147
e 123 149
e 123 150
e 123 159
e 123 162
e 123 170
e 123 181
e 123 183
e 123 184
e 123 188
e 124 126
e 124 127
e 124 129
e 124 131
e 124 134
e 124 152
e 124 155
e 124 163
e 124 170
e 124 171
e 124 174
e 124 177
e 124 179
e 124 184
e 124 192
e 124 194
e 124 195
e 125 153
e 125 156
e 125 158
e 125 165
e 125 183
e 125 186
e 126 157
e 126 161
e 126 163
e 126 178
e 126 180
e 126 187
e 126 193
e 127 129
e 127 131
e 127 140
e 127 155
e 127 158
e 127 159
e 127 161
e 127 169
e 127 178
e 127 181
e 127 183
e 127 188
e 128 137
e 128 140
e 128 141
e 128 144
e 128 147
e 128 168
e 128 170
e 128 178
e 128 180
e 128 196
e 128 199
e 129 166
e 129 182
e 129 193
e 129 198
e 129 199
e 130 135
e 130 139
e 130 152
e 130 161
e 130 168
e 130 185
e 130 187
e 130 194
e 130 199
e 131 134
e 131 136
e 131 143
e 131 146
e 131 152
e 131 160
e 131 162
e 131 163
e 131 167
e 131 174
e 131 180
e 132 137
e 132 150
e 132 154
e 132 167
e 132 181
e 132 191
e 132 192
e 133 134
e 133 139
e 133 143
e 133 145
e 133 160
e 133 171
e 133 175
e 133 178
e 133 197
e 134 135
e 134 139
e 134 141
e 134 146
e 134 148
e 134 160
e 134 163
e 134 171
e 134 182
e 134 200
e 135 140
e 135 146
e 135 147
e 135 166
e 135 168
e 135 173
e 135 186
e 135 195
e 135 199
e 136 140
e 136 145
e 136 148
e 136 153
e 136 160
e 136 168
e 136 181
e 136 190
e 136 191
e 136 197
e 137 139
e 137 140
e 137 157
e 137 158
e 137 161
e 137 177
e 138 139
e 138 143
e 138 158
e 138 159
e 138 160
e 138 189
e 139 144
e 139 146
e 139 162
e 140 142
e 140 157
e 140 159
e 140 166
e 140 169
e 140 173
e 140 177
e 140 180
e 140 181
e 140 190
e 140 194
e 141 143
e 141 150
e 141 157
e 141 181
e 141 183
e 141 200
e 142 149
e 142 158
e 142 166
e 142 167
e 142 174
e 142 179
e 142 198
e 143 153
e 143 157
e 143 187
e 143 193
e 143 194
e 143 196
e 144 145
e 144 151
e 144 155
e 144 160
e 144 163
e 144 164
e 144 165
e 144 198
e 144 199
e 145 147
e 145 162
e 145 171
e 145 175
e 145 177
e 145 183
e 145 191
e 146 159
e 146 163
e 146 171
e 146 194
e 146 197
e 146 200
e 147 164
e 147 174
e 147 187
e 147 188
e 147 200
e 148 160
e 148 168
e 148 173
e 149 158
e 149 159
e 149 165
e 149 171
e 149 185
e 149 189
e 150 153
e 150 155
e 150 175
e 150 186
e 150 188
e 150 190
e 151 159
e 151 166
e 152 156
e 152 164
e 152 177
e 153 157
e 153 160
e 153 162
e 153 163
e 153 190
e 154 165
e 154 172
e 154 179
e 154 185
e 154 191
e 154 192
e 154 195
e 155 159
e 155 177
e 155 184
e 155 187
e 155 192
e 155 199
e 156 157
e 156 159
e 156 170
e 157 181
e 157 185
e 158 166
e 158 168
e 158 171
e 159 161
e 159 185
e 159 200
e 160 197
e 161 173
e 161 185
e 162 166
e 162 173
e 163 184
e 163 198
e 164 167
e 164 177
e 164 179
e 164 187
e 165 166
e 165 169
e 165 178
e 165 198
e 166 171
e 166 172
e 166 180
e 166 188
e 166 189
e 166 197
e 167 173
e 167 184
e 167 200
e 168 181
e 168 198
e 168 199
e 168 200
e 169 184
e 169 195
e 169 198
e 170 180
e 170 184
e 170 185
e 170 189
e 170 191
e 171 175
e 171 189
e 171 192
e 172 178
e 172 185
e 172 196
e 173 184
e 173 197
e 174 175
e 174 191
e 175 187
e 175 199
e 176 182
e 176 188
e 177 178
e 177 181
e 177 196
e 178 179
e 178 181
e 178 190
e 178 196
e 179 194
e 179 200
e 180 183
e 181 184
e 181 187
e 181 188
e 181 189
e 181 193
e 182 183
e 182 184
e 182 190
e 182 193
e 183 190
e 183 196
e 184 189
e 184 192
e 184 194
e 185 190
e 185 196
e 186 189
e 186 191
e 187 192
e 188 189
e 188 196
e 188 197
e 189 199
e 190 198
e 191 194
e 192 199
e 193 194
e 195 199
